46
5
0 6 8 10 14 19 22 23 24 26 27 29 30 31 33 35 40 42 43 44
1 6 8 10 11 13 15 16 17 18 19 21 22 23 24 25 28 29 31 33 34 35 37 38 39 40 42 43 44
2 5 9 10 11 15 16 18 19 20 22 23 24 25 27 28 30 31 38 39 41 44 45
3 6 7 13 15 23 32 34 41 42 43
4 9 12 17 19 27 36 37
